14° run output:
{
    "Function": "kroA500.tsp",
    "Problem dimension": [
        319,
        263,
        344,
        481,
        397,
        419,
        88,
        478,
        409,
        143,
        338,
        451,
        84,
        407,
        188,
        251,
        141,
        18,
        212,
        203,
        426,
        68,
        71,
        233,
        390,
        255,
        333,
        33,
        402,
        103,
        173,
        428,
        183,
        493,
        275,
        476,
        360,
        458,
        104,
        170,
        37,
        435,
        486,
        346,
        413,
        197,
        270,
        134,
        330,
        243,
        164,
        300,
        375,
        174,
        154,
        253,
        269,
        264,
        462,
        342,
        430,
        246,
        62,
        377,
        193,
        292,
        39,
        209,
        211,
        133,
        16,
        111,
        297,
        267,
        447,
        378,
        256,
        131,
        331,
        254,
        417,
        355,
        190,
        147,
        108,
        64,
        157,
        215,
        433,
        231,
        58,
        412,
        112,
        414,
        132,
        483,
        398,
        17,
        457,
        325,
        487,
        392,
        159,
        381,
        399,
        85,
        232,
        146,
        273,
        43,
        91,
        36,
        81,
        115,
        322,
        166,
        237,
        205,
        109,
        187,
        99,
        371,
        406,
        30,
        119,
        235,
        271,
        61,
        410,
        403,
        145,
        472,
        155,
        441,
        138,
        195,
        67,
        318,
        101,
        311,
        278,
        160,
        317,
        277,
        465,
        436,
        372,
        240,
        162,
        459,
        225,
        113,
        21,
        46,
        480,
        172,
        224,
        158,
        98,
        367,
        94,
        208,
        445,
        259,
        123,
        335,
        420,
        329,
        223,
        217,
        177,
        27,
        423,
        194,
        219,
        261,
        73,
        280,
        44,
        250,
        466,
        130,
        234,
        165,
        302,
        244,
        305,
        293,
        368,
        180,
        168,
        437,
        326,
        242,
        320,
        57,
        38,
        308,
        332,
        204,
        499,
        249,
        385,
        151,
        431,
        408,
        181,
        387,
        207,
        386,
        393,
        482,
        495,
        341,
        50,
        32,
        125,
        453,
        339,
        79,
        76,
        313,
        153,
        383,
        379,
        340,
        222,
        86,
        169,
        443,
        15,
        282,
        268,
        262,
        252,
        206,
        304,
        477,
        334,
        139,
        265,
        294,
        321,
        189,
        241,
        298,
        314,
        469,
        42,
        336,
        49,
        328,
        22,
        363,
        389,
        450,
        92,
        47,
        65,
        303,
        327,
        316,
        489,
        394,
        77,
        220,
        484,
        5,
        14,
        100,
        384,
        498,
        400,
        118,
        120,
        116,
        178,
        3,
        418,
        449,
        74,
        45,
        107,
        353,
        56,
        13,
        218,
        185,
        274,
        416,
        117,
        444,
        121,
        258,
        425,
        405,
        432,
        296,
        202,
        163,
        260,
        201,
        238,
        199,
        129,
        248,
        347,
        291,
        434,
        150,
        239,
        176,
        83,
        148,
        213,
        380,
        364,
        324,
        20,
        382,
        221,
        289,
        427,
        171,
        373,
        230,
        343,
        424,
        55,
        228,
        135,
        105,
        287,
        266,
        485,
        51,
        52,
        452,
        422,
        110,
        301,
        461,
        496,
        357,
        358,
        66,
        12,
        391,
        191,
        95,
        186,
        475,
        53,
        182,
        272,
        40,
        161,
        19,
        0,
        359,
        10,
        365,
        362,
        8,
        490,
        286,
        247,
        192,
        345,
        102,
        309,
        140,
        97,
        257,
        415,
        429,
        471,
        356,
        351,
        28,
        337,
        456,
        124,
        93,
        90,
        354,
        281,
        290,
        122,
        352,
        306,
        2,
        200,
        479,
        473,
        227,
        349,
        175,
        59,
        310,
        152,
        60,
        446,
        214,
        323,
        470,
        87,
        288,
        149,
        467,
        276,
        128,
        7,
        1,
        136,
        463,
        156,
        411,
        299,
        24,
        421,
        348,
        216,
        210,
        285,
        41,
        78,
        369,
        75,
        82,
        361,
        245,
        198,
        442,
        497,
        236,
        72,
        179,
        6,
        366,
        439,
        126,
        70,
        374,
        114,
        438,
        96,
        48,
        69,
        464,
        492,
        488,
        350,
        167,
        388,
        226,
        29,
        401,
        307,
        196,
        468,
        25,
        295,
        142,
        455,
        370,
        279,
        284,
        23,
        312,
        80,
        9,
        63,
        474,
        404,
        26,
        31,
        137,
        144,
        448,
        89,
        395,
        34,
        229,
        494,
        106,
        11,
        440,
        315,
        283,
        491,
        460,
        54,
        376,
        4,
        184,
        454,
        127,
        35,
        396
    ],
    "Global Optimum": 0,
    "Algorithm": "Genetic algorithm",
    "Parameters": {
        "population": 30,
        "offspring": 30,
        "mutation probability": 0.002,
        "crossover probability": 0.9
    },
    "Fitness": 514280,
    "Solution": [
        319,
        263,
        344,
        481,
        397,
        419,
        88,
        478,
        409,
        143,
        338,
        451,
        84,
        407,
        188,
        251,
        141,
        18,
        212,
        203,
        426,
        68,
        71,
        233,
        390,
        255,
        333,
        33,
        402,
        103,
        173,
        428,
        183,
        493,
        275,
        476,
        360,
        458,
        104,
        170,
        37,
        435,
        486,
        346,
        413,
        197,
        270,
        134,
        330,
        243,
        164,
        300,
        375,
        174,
        154,
        253,
        269,
        264,
        462,
        342,
        430,
        246,
        62,
        377,
        193,
        292,
        39,
        209,
        211,
        133,
        16,
        111,
        297,
        267,
        447,
        378,
        256,
        131,
        331,
        254,
        417,
        355,
        190,
        147,
        108,
        64,
        157,
        215,
        433,
        231,
        58,
        412,
        112,
        414,
        132,
        483,
        398,
        17,
        457,
        325,
        487,
        392,
        159,
        381,
        399,
        85,
        232,
        146,
        273,
        43,
        91,
        36,
        81,
        115,
        322,
        166,
        237,
        205,
        109,
        187,
        99,
        371,
        406,
        30,
        119,
        235,
        271,
        61,
        410,
        403,
        145,
        472,
        155,
        441,
        138,
        195,
        67,
        318,
        101,
        311,
        278,
        160,
        317,
        277,
        465,
        436,
        372,
        240,
        162,
        459,
        225,
        113,
        21,
        46,
        480,
        172,
        224,
        158,
        98,
        367,
        94,
        208,
        445,
        259,
        123,
        335,
        420,
        329,
        223,
        217,
        177,
        27,
        423,
        194,
        219,
        261,
        73,
        280,
        44,
        250,
        466,
        130,
        234,
        165,
        302,
        244,
        305,
        293,
        368,
        180,
        168,
        437,
        326,
        242,
        320,
        57,
        38,
        308,
        332,
        204,
        499,
        249,
        385,
        151,
        431,
        408,
        181,
        387,
        207,
        386,
        393,
        482,
        495,
        341,
        50,
        32,
        125,
        453,
        339,
        79,
        76,
        313,
        153,
        383,
        379,
        340,
        222,
        86,
        169,
        443,
        15,
        282,
        268,
        262,
        252,
        206,
        304,
        477,
        334,
        139,
        265,
        294,
        321,
        189,
        241,
        298,
        314,
        469,
        42,
        336,
        49,
        328,
        22,
        363,
        389,
        450,
        92,
        47,
        65,
        303,
        327,
        316,
        489,
        394,
        77,
        220,
        484,
        5,
        14,
        100,
        384,
        498,
        400,
        118,
        120,
        116,
        178,
        3,
        418,
        449,
        74,
        45,
        107,
        353,
        56,
        13,
        218,
        185,
        274,
        416,
        117,
        444,
        121,
        258,
        425,
        405,
        432,
        296,
        202,
        163,
        260,
        201,
        238,
        199,
        129,
        248,
        347,
        291,
        434,
        150,
        239,
        176,
        83,
        148,
        213,
        380,
        364,
        324,
        20,
        382,
        221,
        289,
        427,
        171,
        373,
        230,
        343,
        424,
        55,
        228,
        135,
        105,
        287,
        266,
        485,
        51,
        52,
        452,
        422,
        110,
        301,
        461,
        496,
        357,
        358,
        66,
        12,
        391,
        191,
        95,
        186,
        475,
        53,
        182,
        272,
        40,
        161,
        19,
        0,
        359,
        10,
        365,
        362,
        8,
        490,
        286,
        247,
        192,
        345,
        102,
        309,
        140,
        97,
        257,
        415,
        429,
        471,
        356,
        351,
        28,
        337,
        456,
        124,
        93,
        90,
        354,
        281,
        290,
        122,
        352,
        306,
        2,
        200,
        479,
        473,
        227,
        349,
        175,
        59,
        310,
        152,
        60,
        446,
        214,
        323,
        470,
        87,
        288,
        149,
        467,
        276,
        128,
        7,
        1,
        136,
        463,
        156,
        411,
        299,
        24,
        421,
        348,
        216,
        210,
        285,
        41,
        78,
        369,
        75,
        82,
        361,
        245,
        198,
        442,
        497,
        236,
        72,
        179,
        6,
        366,
        439,
        126,
        70,
        374,
        114,
        438,
        96,
        48,
        69,
        464,
        492,
        488,
        350,
        167,
        388,
        226,
        29,
        401,
        307,
        196,
        468,
        25,
        295,
        142,
        455,
        370,
        279,
        284,
        23,
        312,
        80,
        9,
        63,
        474,
        404,
        26,
        31,
        137,
        144,
        448,
        89,
        395,
        34,
        229,
        494,
        106,
        11,
        440,
        315,
        283,
        491,
        460,
        54,
        376,
        4,
        184,
        454,
        127,
        35,
        396
    ],
    "Nb of functions evaluations": 400020,
    "Computational time in seconds": 1770.7859377861023,
    "Stopping criterion in evaluations": 400000
}